B1 N1 
1.0
      2.86651906      0.16704405      3.98880625
      0.50665160      2.27678903      1.06650344
      4.24827565     -0.72088920      6.10993247
     B     N
     1     1
Direct
     -0.47566680      0.28617968      0.21113064
      0.71276125     -0.77332121     -0.23927837
